491,216
575,352
168,240
342,67
681,-74
597,322
609,458
738,424
795,369
799,388
708,491
524,891
891,406
646,454
366,635
474,374
326,350
927,67
561,406
1108,623
947,599
681,496
552,805
602,909
491,780
282,535
1069,124
1125,476
